NAME: ostrava
TYPE: TSP
DIMENSION: 13
EDGE_WEIGHT_TYPE: GEO
COMMENT: MODERN_GPS_DIPLOMA
NODE_COORD_SECTION
 1 49.826152 18.183811
 2 49.831962 18.161119
 3 49.847281 18.147815
 4 49.829071 18.162476
 5 49.834689 18.265414
 6 49.831561 18.286378
 7 49.831256 18.291850
 8 49.834149 18.293813
 9 49.835637 18.292601
 10 49.838654 18.288621
 11 49.830619 18.300433
 12 49.819379 18.184111
 13 49.825096 18.166323
EOF